p tw 38 40
1 2
2 13
3 14
4 5
5 6
6 7
6 8
7 31
8 9
9 10
10 11
11 12
12 14
13 24
14 15
15 16
16 17
17 18
18 19
19 20
20 21
21 22
21 23
22 31
23 25
24 33
25 26
26 27
27 28
28 29
29 30
30 31
31 32
33 34
34 35
34 4
35 36
36 37
37 38
38 3
